param set_len = 22;
param target_sum = 180538;
param values := [1] 14114 [2] 24114 [3] 19617 [4] 15883 [5] 12223 [6] 29221 [7] 1913 [8] 12555 [9] 20688 [10] 2480 [11] 14675 [12] 4031 [13] 2564 [14] 21205 [15] 94 [16] 19 [17] 623 [18] 29432 [19] 5472 [20] 12619 [21] 22651 [22] 31491 ;
